% Logging successfully configured
%%%mzn-stat: initTime=0.003447262
%%%mzn-stat: objective=576
%%%mzn-stat: nodes=131
%%%mzn-stat: restarts=0
%%%mzn-stat: peakDepth=129
%%%mzn-stat: solveTime=0.001172859
%%%mzn-stat: variables=290
%%%mzn-stat: propagators=191
%%%mzn-stat: failures=2
%%%mzn-stat: propagations=700
%%%mzn-stat: nogoods=2
%%%mzn-stat: numAtomicConstraintsPropagated=0
%%%mzn-stat: circuitNumber1PropagationsTotal=42
%%%mzn-stat: circuitNumber1CircuitConflicts=0
%%%mzn-stat: circuitNumber1AlldiffConflicts=0
%%%mzn-stat: circuitNumber1TotalFixedEdgesAtConflict=0
%%%mzn-stat: circuitNumber1NumberOfConflicts=0
%%%mzn-stat: circuitNumber1GacPrunings=75
%%%mzn-stat: circuitNumber1PropagationsThatGacPruned=22
%%%mzn-stat: circuitNumber1TotalPruningHallSetSize=140
%%%mzn-stat: circuitNumber1NumberOfPruningExplanations=75
%%%mzn-stat: circuitNumber1MaxPruningHallSetSize=12
%%%mzn-stat: circuitNumber1TotalSccSizeAtPruning=116
%%%mzn-stat: circuitNumber1NumberOfSccPruningCalls=22
%%%mzn-stat: circuitNumber1TotalVarsInvolvedInPruning=67
%%%mzn-stat: circuitNumber1MaxValuesPrunedFromSingleVar=3
%%%mzn-stat: circuitNumber1HallCircuitChecks=46
%%%mzn-stat: circuitNumber1HallCircuitPrunings=3
%%%mzn-stat: circuitNumber1CircuitPreventPrunings=22
%%%mzn-stat: AverageConflictSize=9.5
%%%mzn-stat: NumUnitNogoodsLearned=0
%%%mzn-stat: AverageLearnedNogoodLength=8.5
%%%mzn-stat: AverageBacktrackAmount=0
%%%mzn-stat: AverageLbd=8.5
%%%mzn-stat: 2AutonomousSearchNumBackupCalled=117
%%%mzn-stat: 2AutonomousSearchNumPredicatesRemoved=0
%%%mzn-stat: 2AutonomousSearchNumCalls=118
%%%mzn-stat: 2AutonomousSearchNumPredicatesAdded=87
%%%mzn-stat: 2AutonomousSearchAverageSizeOfHeap=0.7372881355932204
%%%mzn-stat: 2AutonomousSearchNumAssignedPredicatesEncountered=87
%%%mzn-stat-end
maxleg = 576;
succ = array1d(1..20,[7, 4, 6, 10, 2, 5, 3, 15, 11, 14, 8, 17, 16, 19, 12, 9, 20, 1, 13, 18]);
% time elapsed: 0.16 s
----------
%%%mzn-stat: initTime=0.003447262
%%%mzn-stat: objective=575
%%%mzn-stat: nodes=256
%%%mzn-stat: restarts=0
%%%mzn-stat: peakDepth=129
%%%mzn-stat: solveTime=0.001870873
%%%mzn-stat: variables=290
%%%mzn-stat: propagators=191
%%%mzn-stat: failures=2
%%%mzn-stat: propagations=1020
%%%mzn-stat: nogoods=2
%%%mzn-stat: numAtomicConstraintsPropagated=0
%%%mzn-stat: circuitNumber1PropagationsTotal=74
%%%mzn-stat: circuitNumber1CircuitConflicts=0
%%%mzn-stat: circuitNumber1AlldiffConflicts=0
%%%mzn-stat: circuitNumber1TotalFixedEdgesAtConflict=0
%%%mzn-stat: circuitNumber1NumberOfConflicts=0
%%%mzn-stat: circuitNumber1GacPrunings=131
%%%mzn-stat: circuitNumber1PropagationsThatGacPruned=38
%%%mzn-stat: circuitNumber1TotalPruningHallSetSize=240
%%%mzn-stat: circuitNumber1NumberOfPruningExplanations=131
%%%mzn-stat: circuitNumber1MaxPruningHallSetSize=12
%%%mzn-stat: circuitNumber1TotalSccSizeAtPruning=192
%%%mzn-stat: circuitNumber1NumberOfSccPruningCalls=38
%%%mzn-stat: circuitNumber1TotalVarsInvolvedInPruning=116
%%%mzn-stat: circuitNumber1MaxValuesPrunedFromSingleVar=3
%%%mzn-stat: circuitNumber1HallCircuitChecks=79
%%%mzn-stat: circuitNumber1HallCircuitPrunings=6
%%%mzn-stat: circuitNumber1CircuitPreventPrunings=37
%%%mzn-stat: AverageConflictSize=9.5
%%%mzn-stat: NumUnitNogoodsLearned=0
%%%mzn-stat: AverageLearnedNogoodLength=8.5
%%%mzn-stat: AverageBacktrackAmount=0
%%%mzn-stat: AverageLbd=8.5
%%%mzn-stat: 2AutonomousSearchNumBackupCalled=232
%%%mzn-stat: 2AutonomousSearchNumPredicatesRemoved=0
%%%mzn-stat: 2AutonomousSearchNumCalls=234
%%%mzn-stat: 2AutonomousSearchNumPredicatesAdded=87
%%%mzn-stat: 2AutonomousSearchAverageSizeOfHeap=0.7435897435897436
%%%mzn-stat: 2AutonomousSearchNumAssignedPredicatesEncountered=174
%%%mzn-stat-end
maxleg = 575;
succ = array1d(1..20,[7, 4, 6, 10, 2, 5, 3, 15, 11, 14, 8, 17, 16, 19, 20, 9, 18, 1, 13, 12]);
% time elapsed: 0.16 s
----------
%%%mzn-stat: initTime=0.003447262
%%%mzn-stat: objective=446
%%%mzn-stat: nodes=370
%%%mzn-stat: restarts=0
%%%mzn-stat: peakDepth=129
%%%mzn-stat: solveTime=0.002550124
%%%mzn-stat: variables=290
%%%mzn-stat: propagators=191
%%%mzn-stat: failures=2
%%%mzn-stat: propagations=1360
%%%mzn-stat: nogoods=2
%%%mzn-stat: numAtomicConstraintsPropagated=0
%%%mzn-stat: circuitNumber1PropagationsTotal=105
%%%mzn-stat: circuitNumber1CircuitConflicts=0
%%%mzn-stat: circuitNumber1AlldiffConflicts=0
%%%mzn-stat: circuitNumber1TotalFixedEdgesAtConflict=0
%%%mzn-stat: circuitNumber1NumberOfConflicts=0
%%%mzn-stat: circuitNumber1GacPrunings=186
%%%mzn-stat: circuitNumber1PropagationsThatGacPruned=53
%%%mzn-stat: circuitNumber1TotalPruningHallSetSize=328
%%%mzn-stat: circuitNumber1NumberOfPruningExplanations=186
%%%mzn-stat: circuitNumber1MaxPruningHallSetSize=12
%%%mzn-stat: circuitNumber1TotalSccSizeAtPruning=240
%%%mzn-stat: circuitNumber1NumberOfSccPruningCalls=53
%%%mzn-stat: circuitNumber1TotalVarsInvolvedInPruning=166
%%%mzn-stat: circuitNumber1MaxValuesPrunedFromSingleVar=3
%%%mzn-stat: circuitNumber1HallCircuitChecks=114
%%%mzn-stat: circuitNumber1HallCircuitPrunings=7
%%%mzn-stat: circuitNumber1CircuitPreventPrunings=49
%%%mzn-stat: AverageConflictSize=9.5
%%%mzn-stat: NumUnitNogoodsLearned=0
%%%mzn-stat: AverageLearnedNogoodLength=8.5
%%%mzn-stat: AverageBacktrackAmount=0
%%%mzn-stat: AverageLbd=8.5
%%%mzn-stat: 2AutonomousSearchNumBackupCalled=333
%%%mzn-stat: 2AutonomousSearchNumPredicatesRemoved=0
%%%mzn-stat: 2AutonomousSearchNumCalls=336
%%%mzn-stat: 2AutonomousSearchNumPredicatesAdded=87
%%%mzn-stat: 2AutonomousSearchAverageSizeOfHeap=0.7767857142857143
%%%mzn-stat: 2AutonomousSearchNumAssignedPredicatesEncountered=261
%%%mzn-stat-end
maxleg = 446;
succ = array1d(1..20,[8, 4, 6, 10, 2, 5, 3, 11, 7, 14, 13, 17, 16, 19, 1, 9, 15, 12, 20, 18]);
% time elapsed: 0.16 s
----------
%%%mzn-stat: initTime=0.003447262
%%%mzn-stat: objective=379
%%%mzn-stat: nodes=475
%%%mzn-stat: restarts=0
%%%mzn-stat: peakDepth=129
%%%mzn-stat: solveTime=0.003165578
%%%mzn-stat: variables=290
%%%mzn-stat: propagators=191
%%%mzn-stat: failures=2
%%%mzn-stat: propagations=1702
%%%mzn-stat: nogoods=2
%%%mzn-stat: numAtomicConstraintsPropagated=0
%%%mzn-stat: circuitNumber1PropagationsTotal=132
%%%mzn-stat: circuitNumber1CircuitConflicts=0
%%%mzn-stat: circuitNumber1AlldiffConflicts=0
%%%mzn-stat: circuitNumber1TotalFixedEdgesAtConflict=0
%%%mzn-stat: circuitNumber1NumberOfConflicts=0
%%%mzn-stat: circuitNumber1GacPrunings=239
%%%mzn-stat: circuitNumber1PropagationsThatGacPruned=66
%%%mzn-stat: circuitNumber1TotalPruningHallSetSize=425
%%%mzn-stat: circuitNumber1NumberOfPruningExplanations=239
%%%mzn-stat: circuitNumber1MaxPruningHallSetSize=12
%%%mzn-stat: circuitNumber1TotalSccSizeAtPruning=295
%%%mzn-stat: circuitNumber1NumberOfSccPruningCalls=66
%%%mzn-stat: circuitNumber1TotalVarsInvolvedInPruning=211
%%%mzn-stat: circuitNumber1MaxValuesPrunedFromSingleVar=3
%%%mzn-stat: circuitNumber1HallCircuitChecks=145
%%%mzn-stat: circuitNumber1HallCircuitPrunings=8
%%%mzn-stat: circuitNumber1CircuitPreventPrunings=59
%%%mzn-stat: AverageConflictSize=9.5
%%%mzn-stat: NumUnitNogoodsLearned=0
%%%mzn-stat: AverageLearnedNogoodLength=8.5
%%%mzn-stat: AverageBacktrackAmount=0
%%%mzn-stat: AverageLbd=8.5
%%%mzn-stat: 2AutonomousSearchNumBackupCalled=427
%%%mzn-stat: 2AutonomousSearchNumPredicatesRemoved=0
%%%mzn-stat: 2AutonomousSearchNumCalls=431
%%%mzn-stat: 2AutonomousSearchNumPredicatesAdded=87
%%%mzn-stat: 2AutonomousSearchAverageSizeOfHeap=0.8074245939675174
%%%mzn-stat: 2AutonomousSearchNumAssignedPredicatesEncountered=348
%%%mzn-stat-end
maxleg = 379;
succ = array1d(1..20,[8, 4, 6, 10, 2, 5, 3, 11, 7, 14, 13, 17, 16, 19, 1, 9, 18, 15, 20, 12]);
% time elapsed: 0.16 s
----------
==========
% time elapsed: 0.16 s
%%%mzn-stat: initTime=0.003447262
%%%mzn-stat: objective=379
%%%mzn-stat: nodes=475
%%%mzn-stat: restarts=0
%%%mzn-stat: peakDepth=129
%%%mzn-stat: solveTime=0.003297171
%%%mzn-stat: variables=290
%%%mzn-stat: propagators=191
%%%mzn-stat: failures=3
%%%mzn-stat: propagations=1766
%%%mzn-stat: nogoods=3
%%%mzn-stat: numAtomicConstraintsPropagated=0
%%%mzn-stat: circuitNumber1PropagationsTotal=133
%%%mzn-stat: circuitNumber1CircuitConflicts=0
%%%mzn-stat: circuitNumber1AlldiffConflicts=0
%%%mzn-stat: circuitNumber1TotalFixedEdgesAtConflict=0
%%%mzn-stat: circuitNumber1NumberOfConflicts=0
%%%mzn-stat: circuitNumber1GacPrunings=245
%%%mzn-stat: circuitNumber1PropagationsThatGacPruned=67
%%%mzn-stat: circuitNumber1TotalPruningHallSetSize=485
%%%mzn-stat: circuitNumber1NumberOfPruningExplanations=245
%%%mzn-stat: circuitNumber1MaxPruningHallSetSize=19
%%%mzn-stat: circuitNumber1TotalSccSizeAtPruning=332
%%%mzn-stat: circuitNumber1NumberOfSccPruningCalls=67
%%%mzn-stat: circuitNumber1TotalVarsInvolvedInPruning=215
%%%mzn-stat: circuitNumber1MaxValuesPrunedFromSingleVar=3
%%%mzn-stat: circuitNumber1HallCircuitChecks=146
%%%mzn-stat: circuitNumber1HallCircuitPrunings=8
%%%mzn-stat: circuitNumber1CircuitPreventPrunings=60
%%%mzn-stat: AverageConflictSize=7
%%%mzn-stat: NumUnitNogoodsLearned=1
%%%mzn-stat: AverageLearnedNogoodLength=6
%%%mzn-stat: AverageBacktrackAmount=0
%%%mzn-stat: AverageLbd=6
%%%mzn-stat: 2AutonomousSearchNumBackupCalled=427
%%%mzn-stat: 2AutonomousSearchNumPredicatesRemoved=0
%%%mzn-stat: 2AutonomousSearchNumCalls=431
%%%mzn-stat: 2AutonomousSearchNumPredicatesAdded=201
%%%mzn-stat: 2AutonomousSearchAverageSizeOfHeap=0.8074245939675174
%%%mzn-stat: 2AutonomousSearchNumAssignedPredicatesEncountered=348
%%%mzn-stat-end
